100
128
26
53
2
39
63
28
29
7
6
14
3
1
16
1
58
41
42
5
20
17
26
55
56
31
31
20
4
13
11
48
46
14
12
27
27
25
28
28
59
47
28
27
24
37
14
48
30
41
18
30
25
45
20
11
29
39
5
17
19
16
14
25
15
29
39
14
21
59
23
35
29
58
32
1
19
20
49
59
31
19
21
40
36
45
40
20
4
32
25
26
23
40
20
37
20
21
30
25
51
51